(set-logic HORN)

(declare-fun state (Int Int Int (Array Int Int) (Array Int Int) Bool Bool Bool) Bool)


(assert (forall ((|!{N}| Int) (|!{i}| Int) (|!{x}| Int) (|!{a.1}| (Array Int Int)) (|!{b.2}| (Array Int Int)) (|!pc[0]| Bool) (|!pc[1]| Bool) (|!pc[2]| Bool))
  (=>
   (let ((.def_38 (not |!pc[2]|)))
(let ((.def_36 (not |!pc[1]|)))
(let ((.def_35 (not |!pc[0]|)))
(let ((.def_37 (and .def_35 .def_36)))
(let ((.def_39 (and .def_37 .def_38)))
.def_39)))))
   (state |!{N}| |!{i}| |!{x}| |!{a.1}| |!{b.2}| |!pc[0]| |!pc[1]| |!pc[2]|))))

(assert (forall ((|!{N}| Int) (|!{i}| Int) (|!{x}| Int) (|!{a.1}| (Array Int Int)) (|!{b.2}| (Array Int Int)) (|!pc[0]| Bool) (|!pc[1]| Bool) (|!pc[2]| Bool)
                 (|!{N}.next| Int) (|!{i}.next| Int) (|!{x}.next| Int) (|!{a.1}.next| (Array Int Int)) (|!{b.2}.next| (Array Int Int)) (|!pc[0].next| Bool) (|!pc[1].next| Bool) (|!pc[2].next| Bool)
                 (|%{x}#1| Int) (|%{a.1}#1| (Array Int Int)) (|%{b.2}#1| (Array Int Int)) (nd<0> Int))
  (=>
   (and (state |!{N}| |!{i}| |!{x}| |!{a.1}| |!{b.2}| |!pc[0]| |!pc[1]| |!pc[2]|)
(let ((.def_36 (not |!pc[1]|)))
(let ((.def_145 (and |!pc[0]| .def_36)))
(let ((.def_38 (not |!pc[2]|)))
(let ((.def_164 (and .def_38 .def_145)))
(let ((.def_60 (not |!pc[1].next|)))
(let ((.def_61 (and |!pc[0].next| .def_60)))
(let ((.def_147 (and |!pc[2].next| .def_61)))
(let ((.def_167 (and .def_147 .def_164)))
(let ((.def_76 (= |!{N}| |!{N}.next|)))
(let ((.def_51 (= |!{i}.next| 0)))
(let ((.def_159 (and .def_51 .def_76)))
(let ((.def_80 (= |!{x}| |!{x}.next|)))
(let ((.def_160 (and .def_80 .def_159)))
(let ((.def_82 (= |!{a.1}| |!{a.1}.next|)))
(let ((.def_161 (and .def_82 .def_160)))
(let ((.def_84 (= |!{b.2}| |!{b.2}.next|)))
(let ((.def_162 (and .def_84 .def_161)))
(let ((.def_125 (<= |!{N}| |!{i}|)))
(let ((.def_163 (and .def_125 .def_162)))
(let ((.def_168 (and .def_163 .def_167)))
(let ((.def_62 (not |!pc[2].next|)))
(let ((.def_63 (and .def_61 .def_62)))
(let ((.def_165 (and .def_63 .def_164)))
(let ((.def_154 (store |!{a.1}| |!{i}| 42)))
(let ((.def_155 (= |!{a.1}.next| .def_154)))
(let ((.def_131 (* (- 1) |!{i}.next|)))
(let ((.def_132 (+ |!{i}| .def_131)))
(let ((.def_133 (= .def_132 (- 1))))
(let ((.def_134 (and .def_76 .def_133)))
(let ((.def_135 (and .def_80 .def_134)))
(let ((.def_156 (and .def_135 .def_155)))
(let ((.def_157 (and .def_84 .def_156)))
(let ((.def_126 (not .def_125)))
(let ((.def_158 (and .def_126 .def_157)))
(let ((.def_166 (and .def_158 .def_165)))
(let ((.def_169 (or .def_166 .def_168)))
(let ((.def_146 (and |!pc[2]| .def_145)))
(let ((.def_108 (not |!pc[0].next|)))
(let ((.def_109 (and |!pc[1].next| .def_108)))
(let ((.def_110 (and .def_62 .def_109)))
(let ((.def_150 (and .def_110 .def_146)))
(let ((.def_140 (= |!{x}.next| 0)))
(let ((.def_78 (= |!{i}| |!{i}.next|)))
(let ((.def_87 (and .def_76 .def_78)))
(let ((.def_141 (and .def_87 .def_140)))
(let ((.def_142 (and .def_82 .def_141)))
(let ((.def_143 (and .def_84 .def_142)))
(let ((.def_144 (and .def_125 .def_143)))
(let ((.def_151 (and .def_144 .def_150)))
(let ((.def_148 (and .def_146 .def_147)))
(let ((.def_128 (select |!{a.1}| |!{i}|)))
(let ((.def_129 (store |!{b.2}| |!{i}| .def_128)))
(let ((.def_137 (= |!{b.2}.next| .def_129)))
(let ((.def_136 (and .def_82 .def_135)))
(let ((.def_138 (and .def_136 .def_137)))
(let ((.def_139 (and .def_126 .def_138)))
(let ((.def_149 (and .def_139 .def_148)))
(let ((.def_152 (or .def_149 .def_151)))
(let ((.def_120 (and |!pc[0]| |!pc[1]|)))
(let ((.def_121 (and .def_38 .def_120)))
(let ((.def_122 (and .def_110 .def_121)))
(let ((.def_89 (* (- 1) |!{x}.next|)))
(let ((.def_90 (+ |!{x}| .def_89)))
(let ((.def_91 (= .def_90 (- 1))))
(let ((.def_92 (and .def_87 .def_91)))
(let ((.def_93 (and .def_82 .def_92)))
(let ((.def_94 (and .def_84 .def_93)))
(let ((.def_123 (and .def_94 .def_122)))
(let ((.def_114 (and .def_60 .def_108)))
(let ((.def_115 (and |!pc[2].next| .def_114)))
(let ((.def_35 (not |!pc[0]|)))
(let ((.def_102 (and |!pc[1]| .def_35)))
(let ((.def_103 (and .def_38 .def_102)))
(let ((.def_116 (and .def_103 .def_115)))
(let ((.def_66 (<= |!{N}| |!{x}|)))
(let ((.def_97 (and .def_66 .def_76)))
(let ((.def_98 (and .def_78 .def_97)))
(let ((.def_99 (and .def_80 .def_98)))
(let ((.def_100 (and .def_82 .def_99)))
(let ((.def_101 (and .def_84 .def_100)))
(let ((.def_117 (and .def_101 .def_116)))
(let ((.def_111 (and .def_103 .def_110)))
(let ((.def_68 (select |!{b.2}| |!{x}|)))
(let ((.def_70 (= .def_68 42)))
(let ((.def_95 (and .def_70 .def_94)))
(let ((.def_67 (not .def_66)))
(let ((.def_96 (and .def_67 .def_95)))
(let ((.def_112 (and .def_96 .def_111)))
(let ((.def_104 (and |!pc[0].next| |!pc[1].next|)))
(let ((.def_105 (and .def_62 .def_104)))
(let ((.def_106 (and .def_103 .def_105)))
(let ((.def_71 (not .def_70)))
(let ((.def_77 (and .def_71 .def_76)))
(let ((.def_79 (and .def_77 .def_78)))
(let ((.def_81 (and .def_79 .def_80)))
(let ((.def_83 (and .def_81 .def_82)))
(let ((.def_85 (and .def_83 .def_84)))
(let ((.def_86 (and .def_67 .def_85)))
(let ((.def_107 (and .def_86 .def_106)))
(let ((.def_113 (or .def_107 .def_112)))
(let ((.def_118 (or .def_113 .def_117)))
(let ((.def_37 (and .def_35 .def_36)))
(let ((.def_39 (and .def_37 .def_38)))
(let ((.def_64 (and .def_39 .def_63)))
(let ((.def_57 (= |!{b.2}.next| |%{b.2}#1|)))
(let ((.def_55 (= |!{a.1}.next| |%{a.1}#1|)))
(let ((.def_53 (= |!{x}.next| |%{x}#1|)))
(let ((.def_50 (= |!{N}.next| nd<0>)))
(let ((.def_52 (and .def_50 .def_51)))
(let ((.def_54 (and .def_52 .def_53)))
(let ((.def_56 (and .def_54 .def_55)))
(let ((.def_58 (and .def_56 .def_57)))
(let ((.def_48 (<= nd<0> 0)))
(let ((.def_49 (not .def_48)))
(let ((.def_59 (and .def_49 .def_58)))
(let ((.def_65 (and .def_59 .def_64)))
(let ((.def_119 (or .def_65 .def_118)))
(let ((.def_124 (or .def_119 .def_123)))
(let ((.def_153 (or .def_124 .def_152)))
(let ((.def_170 (or .def_153 .def_169)))
.def_170))))))))))))))))))))))))))))))))))))))))))))))))))))))))))))))))))))))))))))))))))))))))))))))))))))))))))))))))))))))))
   ) (state |!{N}.next| |!{i}.next| |!{x}.next| |!{a.1}.next| |!{b.2}.next| |!pc[0].next| |!pc[1].next| |!pc[2].next|))))

(assert (forall ((|!{N}| Int) (|!{i}| Int) (|!{x}| Int) (|!{a.1}| (Array Int Int)) (|!{b.2}| (Array Int Int)) (|!pc[0]| Bool) (|!pc[1]| Bool) (|!pc[2]| Bool))
  (=> (state |!{N}| |!{i}| |!{x}| |!{a.1}| |!{b.2}| |!pc[0]| |!pc[1]| |!pc[2]|)
(let ((.def_120 (and |!pc[0]| |!pc[1]|)))
(let ((.def_38 (not |!pc[2]|)))
(let ((.def_121 (and .def_38 .def_120)))
(let ((.def_171 (not .def_121)))
.def_171))))
)))

(check-sat)
